NAME : A-n33-k5
COMMENT : (Augerat et al, Min no of trucks: 5, Optimal value: 661)
TYPE : CVRP
DIMENSION : 33
EDGE_WEIGHT_TYPE : EUC_2D 
CAPACITY : 100
NODE_COORD_SECTION 
 1 42 68
 2 77 97
 3 28 64
 4 77 39
 5 32 33
 6 32 8
 7 42 92
 8 8 3
 9 7 14
 10 82 17
 11 48 13
 12 53 82
 13 39 27
 14 7 24
 15 67 98
 16 54 52
 17 72 43
 18 73 3
 19 59 77
 20 58 97
 21 23 43
 22 68 98
 23 47 62
 24 52 72
 25 32 88
 26 39 7
 27 17 8
 28 38 7
 29 58 74
 30 82 67
 31 42 7
 32 68 82
 33 7 48
DEMAND_SECTION 
1 0 
2 5 
3 23 
4 14 
5 13 
6 8 
7 18 
8 19 
9 10 
10 18 
11 20 
12 5 
13 9 
14 23 
15 9 
16 18 
17 10 
18 24 
19 13 
20 14 
21 8 
22 10 
23 19 
24 14 
25 13 
26 14 
27 2 
28 23 
29 15 
30 8 
31 20 
32 24 
33 3 
DEPOT_SECTION 
 1  
 -1  
EOF 
